c Standarized MaxSat Instance
c{
c "sha1sum": "5cd1ca288a146be445af070f337afef26c28dc54",
c "nvars": 42,
c "ncls": 822,
c "nhards": 0,
c "nhard_len_stats":
c    { "min": 0, "max": 0, "ave": 0.00,
c      "stddev": 0.00 },
c "nsofts": 822,
c "nsoft_len_stats":
c    { "min": 2, "max": 2, "ave": 2.00,
c      "stddev": 0.00 },
c "nsoft_wts": 10,
c "soft_wt_stats":
c    { "min": 1, "max": 10, "ave": 5.62,
c      "stddev": 2.86 }
c}
c------------------------------------------------------------
c File  p_hat700-2.clq                
c
c Source: P. Soriano and M. Gendreau at  patrick@crt.umontreal.ca
c
c Reference: p-hat graphs are generated with the p-hat generator
c 	      which is a generalization of the classical uniform
c 	      random graph generator.
c 	      Graphs generated with p-hat have wider node degree spread
c 	      and larger cliques than uniform graphs.
c
c NOTE: September 23, 1993 Corrected corrupted file at DIMACS.
c
c
c Generation parameters: 
c 	n =    700 a =  0.00  b =  1.00  Expected density =  0.50
c	Seed =      16313       Real density =  0.498
c
p wcnf 42 822 4623
9 1 2 0
9 -1 -2 0
4 1 4 0
4 -1 -4 0
8 1 5 0
8 -1 -5 0
8 1 6 0
8 -1 -6 0
10 1 13 0
10 -1 -13 0
2 1 15 0
2 -1 -15 0
4 1 18 0
4 -1 -18 0
8 1 19 0
8 -1 -19 0
3 1 20 0
3 -1 -20 0
6 1 22 0
6 -1 -22 0
5 1 27 0
5 -1 -27 0
7 1 31 0
7 -1 -31 0
4 1 32 0
4 -1 -32 0
6 1 34 0
6 -1 -34 0
10 1 35 0
10 -1 -35 0
10 1 39 0
10 -1 -39 0
7 1 42 0
7 -1 -42 0
8 2 12 0
8 -2 -12 0
2 2 14 0
2 -2 -14 0
7 2 15 0
7 -2 -15 0
1 2 16 0
1 -2 -16 0
3 2 18 0
3 -2 -18 0
2 2 19 0
2 -2 -19 0
9 2 23 0
9 -2 -23 0
2 2 28 0
2 -2 -28 0
5 2 31 0
5 -2 -31 0
2 2 32 0
2 -2 -32 0
2 2 35 0
2 -2 -35 0
10 2 41 0
10 -2 -41 0
3 3 4 0
3 -3 -4 0
6 3 5 0
6 -3 -5 0
9 3 10 0
9 -3 -10 0
7 3 13 0
7 -3 -13 0
3 3 18 0
3 -3 -18 0
7 3 21 0
7 -3 -21 0
6 3 23 0
6 -3 -23 0
5 3 25 0
5 -3 -25 0
10 3 29 0
10 -3 -29 0
3 3 31 0
3 -3 -31 0
8 3 32 0
8 -3 -32 0
6 3 35 0
6 -3 -35 0
8 3 38 0
8 -3 -38 0
5 4 5 0
5 -4 -5 0
9 4 7 0
9 -4 -7 0
3 4 8 0
3 -4 -8 0
4 4 9 0
4 -4 -9 0
9 4 10 0
9 -4 -10 0
10 4 11 0
10 -4 -11 0
1 4 12 0
1 -4 -12 0
10 4 14 0
10 -4 -14 0
6 4 16 0
6 -4 -16 0
1 4 19 0
1 -4 -19 0
2 4 20 0
2 -4 -20 0
7 4 21 0
7 -4 -21 0
9 4 22 0
9 -4 -22 0
4 4 24 0
4 -4 -24 0
1 4 26 0
1 -4 -26 0
1 4 28 0
1 -4 -28 0
5 4 29 0
5 -4 -29 0
1 4 30 0
1 -4 -30 0
3 4 32 0
3 -4 -32 0
10 4 34 0
10 -4 -34 0
10 4 35 0
10 -4 -35 0
9 4 40 0
9 -4 -40 0
3 5 6 0
3 -5 -6 0
6 5 7 0
6 -5 -7 0
4 5 8 0
4 -5 -8 0
8 5 9 0
8 -5 -9 0
6 5 10 0
6 -5 -10 0
7 5 11 0
7 -5 -11 0
6 5 13 0
6 -5 -13 0
1 5 14 0
1 -5 -14 0
5 5 15 0
5 -5 -15 0
10 5 16 0
10 -5 -16 0
10 5 18 0
10 -5 -18 0
8 5 19 0
8 -5 -19 0
3 5 20 0
3 -5 -20 0
8 5 21 0
8 -5 -21 0
7 5 22 0
7 -5 -22 0
4 5 24 0
4 -5 -24 0
7 5 26 0
7 -5 -26 0
2 5 27 0
2 -5 -27 0
5 5 29 0
5 -5 -29 0
9 5 30 0
9 -5 -30 0
9 5 31 0
9 -5 -31 0
4 5 32 0
4 -5 -32 0
3 5 34 0
3 -5 -34 0
9 5 35 0
9 -5 -35 0
4 5 36 0
4 -5 -36 0
7 5 39 0
7 -5 -39 0
10 5 40 0
10 -5 -40 0
6 5 41 0
6 -5 -41 0
7 5 42 0
7 -5 -42 0
9 6 7 0
9 -6 -7 0
5 6 8 0
5 -6 -8 0
10 6 10 0
10 -6 -10 0
4 6 14 0
4 -6 -14 0
9 6 15 0
9 -6 -15 0
7 6 16 0
7 -6 -16 0
10 6 17 0
10 -6 -17 0
5 6 18 0
5 -6 -18 0
3 6 20 0
3 -6 -20 0
10 6 24 0
10 -6 -24 0
10 6 25 0
10 -6 -25 0
2 6 26 0
2 -6 -26 0
9 6 28 0
9 -6 -28 0
7 6 29 0
7 -6 -29 0
5 6 30 0
5 -6 -30 0
7 6 31 0
7 -6 -31 0
3 6 34 0
3 -6 -34 0
8 6 35 0
8 -6 -35 0
4 6 38 0
4 -6 -38 0
5 6 39 0
5 -6 -39 0
3 6 40 0
3 -6 -40 0
2 6 42 0
2 -6 -42 0
3 7 10 0
3 -7 -10 0
6 7 12 0
6 -7 -12 0
5 7 14 0
5 -7 -14 0
2 7 15 0
2 -7 -15 0
10 7 16 0
10 -7 -16 0
2 7 17 0
2 -7 -17 0
2 7 18 0
2 -7 -18 0
5 7 19 0
5 -7 -19 0
8 7 21 0
8 -7 -21 0
10 7 22 0
10 -7 -22 0
10 7 24 0
10 -7 -24 0
7 7 27 0
7 -7 -27 0
4 7 28 0
4 -7 -28 0
8 7 31 0
8 -7 -31 0
4 7 32 0
4 -7 -32 0
3 7 34 0
3 -7 -34 0
3 7 35 0
3 -7 -35 0
6 7 42 0
6 -7 -42 0
3 8 12 0
3 -8 -12 0
2 8 14 0
2 -8 -14 0
8 8 18 0
8 -8 -18 0
2 8 20 0
2 -8 -20 0
8 8 21 0
8 -8 -21 0
2 8 22 0
2 -8 -22 0
8 8 28 0
8 -8 -28 0
1 8 31 0
1 -8 -31 0
10 8 32 0
10 -8 -32 0
1 8 35 0
1 -8 -35 0
6 8 41 0
6 -8 -41 0
2 9 10 0
2 -9 -10 0
3 9 14 0
3 -9 -14 0
8 9 21 0
8 -9 -21 0
8 9 28 0
8 -9 -28 0
7 9 29 0
7 -9 -29 0
10 9 32 0
10 -9 -32 0
7 9 42 0
7 -9 -42 0
8 10 11 0
8 -10 -11 0
1 10 15 0
1 -10 -15 0
2 10 18 0
2 -10 -18 0
6 10 23 0
6 -10 -23 0
1 10 28 0
1 -10 -28 0
1 10 31 0
1 -10 -31 0
3 10 32 0
3 -10 -32 0
5 10 34 0
5 -10 -34 0
9 10 35 0
9 -10 -35 0
6 10 37 0
6 -10 -37 0
8 10 40 0
8 -10 -40 0
1 10 41 0
1 -10 -41 0
2 11 15 0
2 -11 -15 0
10 11 16 0
10 -11 -16 0
3 11 18 0
3 -11 -18 0
9 11 23 0
9 -11 -23 0
2 11 24 0
2 -11 -24 0
10 11 25 0
10 -11 -25 0
1 11 27 0
1 -11 -27 0
9 11 28 0
9 -11 -28 0
1 11 29 0
1 -11 -29 0
1 11 31 0
1 -11 -31 0
10 11 34 0
10 -11 -34 0
6 11 35 0
6 -11 -35 0
2 11 37 0
2 -11 -37 0
2 11 40 0
2 -11 -40 0
4 11 42 0
4 -11 -42 0
10 12 14 0
10 -12 -14 0
9 12 15 0
9 -12 -15 0
4 12 16 0
4 -12 -16 0
6 12 17 0
6 -12 -17 0
6 12 18 0
6 -12 -18 0
5 12 24 0
5 -12 -24 0
7 12 25 0
7 -12 -25 0
1 12 28 0
1 -12 -28 0
6 12 32 0
6 -12 -32 0
8 12 33 0
8 -12 -33 0
4 12 34 0
4 -12 -34 0
10 12 35 0
10 -12 -35 0
6 12 36 0
6 -12 -36 0
9 12 37 0
9 -12 -37 0
8 12 38 0
8 -12 -38 0
7 12 40 0
7 -12 -40 0
1 12 41 0
1 -12 -41 0
8 12 42 0
8 -12 -42 0
9 13 16 0
9 -13 -16 0
10 13 18 0
10 -13 -18 0
9 13 22 0
9 -13 -22 0
9 13 32 0
9 -13 -32 0
10 13 35 0
10 -13 -35 0
8 14 15 0
8 -14 -15 0
10 14 16 0
10 -14 -16 0
10 14 18 0
10 -14 -18 0
7 14 20 0
7 -14 -20 0
5 14 21 0
5 -14 -21 0
2 14 24 0
2 -14 -24 0
9 14 27 0
9 -14 -27 0
9 14 31 0
9 -14 -31 0
1 14 33 0
1 -14 -33 0
7 14 34 0
7 -14 -34 0
3 14 35 0
3 -14 -35 0
7 14 36 0
7 -14 -36 0
3 14 39 0
3 -14 -39 0
8 14 40 0
8 -14 -40 0
4 15 17 0
4 -15 -17 0
4 15 18 0
4 -15 -18 0
3 15 19 0
3 -15 -19 0
1 15 20 0
1 -15 -20 0
7 15 21 0
7 -15 -21 0
3 15 22 0
3 -15 -22 0
7 15 23 0
7 -15 -23 0
6 15 24 0
6 -15 -24 0
10 15 26 0
10 -15 -26 0
3 15 28 0
3 -15 -28 0
6 15 29 0
6 -15 -29 0
8 15 30 0
8 -15 -30 0
2 15 32 0
2 -15 -32 0
5 15 33 0
5 -15 -33 0
6 15 34 0
6 -15 -34 0
10 15 35 0
10 -15 -35 0
5 15 37 0
5 -15 -37 0
4 15 38 0
4 -15 -38 0
9 15 39 0
9 -15 -39 0
5 15 41 0
5 -15 -41 0
1 15 42 0
1 -15 -42 0
4 16 17 0
4 -16 -17 0
6 16 18 0
6 -16 -18 0
9 16 19 0
9 -16 -19 0
3 16 20 0
3 -16 -20 0
7 16 22 0
7 -16 -22 0
5 16 23 0
5 -16 -23 0
5 16 24 0
5 -16 -24 0
4 16 26 0
4 -16 -26 0
8 16 27 0
8 -16 -27 0
2 16 28 0
2 -16 -28 0
7 16 31 0
7 -16 -31 0
1 16 32 0
1 -16 -32 0
5 16 33 0
5 -16 -33 0
7 16 34 0
7 -16 -34 0
7 16 35 0
7 -16 -35 0
7 16 37 0
7 -16 -37 0
4 16 38 0
4 -16 -38 0
2 16 39 0
2 -16 -39 0
7 16 42 0
7 -16 -42 0
7 17 18 0
7 -17 -18 0
8 17 20 0
8 -17 -20 0
4 17 21 0
4 -17 -21 0
8 17 22 0
8 -17 -22 0
3 17 29 0
3 -17 -29 0
10 17 31 0
10 -17 -31 0
7 17 32 0
7 -17 -32 0
7 17 34 0
7 -17 -34 0
3 17 35 0
3 -17 -35 0
6 17 36 0
6 -17 -36 0
1 17 41 0
1 -17 -41 0
3 17 42 0
3 -17 -42 0
9 18 19 0
9 -18 -19 0
7 18 20 0
7 -18 -20 0
1 18 21 0
1 -18 -21 0
2 18 23 0
2 -18 -23 0
4 18 24 0
4 -18 -24 0
6 18 25 0
6 -18 -25 0
6 18 28 0
6 -18 -28 0
7 18 31 0
7 -18 -31 0
3 18 32 0
3 -18 -32 0
8 18 34 0
8 -18 -34 0
3 18 35 0
3 -18 -35 0
4 18 36 0
4 -18 -36 0
2 18 39 0
2 -18 -39 0
10 18 42 0
10 -18 -42 0
1 19 20 0
1 -19 -20 0
9 19 21 0
9 -19 -21 0
4 19 22 0
4 -19 -22 0
2 19 23 0
2 -19 -23 0
5 19 25 0
5 -19 -25 0
10 19 27 0
10 -19 -27 0
10 19 31 0
10 -19 -31 0
8 19 32 0
8 -19 -32 0
7 19 33 0
7 -19 -33 0
2 19 35 0
2 -19 -35 0
7 19 39 0
7 -19 -39 0
4 19 40 0
4 -19 -40 0
8 19 42 0
8 -19 -42 0
10 20 21 0
10 -20 -21 0
10 20 22 0
10 -20 -22 0
9 20 23 0
9 -20 -23 0
3 20 24 0
3 -20 -24 0
8 20 25 0
8 -20 -25 0
6 20 28 0
6 -20 -28 0
3 20 29 0
3 -20 -29 0
10 20 31 0
10 -20 -31 0
10 20 32 0
10 -20 -32 0
9 20 35 0
9 -20 -35 0
5 20 36 0
5 -20 -36 0
6 20 38 0
6 -20 -38 0
2 20 40 0
2 -20 -40 0
3 20 41 0
3 -20 -41 0
9 20 42 0
9 -20 -42 0
5 21 22 0
5 -21 -22 0
5 21 24 0
5 -21 -24 0
9 21 28 0
9 -21 -28 0
5 21 29 0
5 -21 -29 0
3 21 34 0
3 -21 -34 0
2 21 37 0
2 -21 -37 0
7 21 38 0
7 -21 -38 0
8 21 39 0
8 -21 -39 0
2 21 40 0
2 -21 -40 0
7 21 41 0
7 -21 -41 0
5 22 24 0
5 -22 -24 0
9 22 29 0
9 -22 -29 0
8 22 30 0
8 -22 -30 0
2 22 34 0
2 -22 -34 0
3 22 35 0
3 -22 -35 0
5 22 38 0
5 -22 -38 0
2 22 39 0
2 -22 -39 0
2 22 40 0
2 -22 -40 0
4 22 41 0
4 -22 -41 0
4 22 42 0
4 -22 -42 0
10 23 24 0
10 -23 -24 0
10 23 25 0
10 -23 -25 0
7 23 29 0
7 -23 -29 0
9 23 31 0
9 -23 -31 0
9 23 33 0
9 -23 -33 0
5 23 34 0
5 -23 -34 0
4 23 35 0
4 -23 -35 0
4 23 36 0
4 -23 -36 0
7 23 42 0
7 -23 -42 0
7 24 25 0
7 -24 -25 0
3 24 28 0
3 -24 -28 0
2 24 31 0
2 -24 -31 0
1 24 32 0
1 -24 -32 0
2 24 33 0
2 -24 -33 0
7 24 34 0
7 -24 -34 0
4 24 35 0
4 -24 -35 0
3 24 36 0
3 -24 -36 0
4 24 39 0
4 -24 -39 0
1 24 40 0
1 -24 -40 0
5 24 42 0
5 -24 -42 0
10 25 26 0
10 -25 -26 0
6 25 29 0
6 -25 -29 0
3 25 32 0
3 -25 -32 0
7 25 35 0
7 -25 -35 0
8 25 38 0
8 -25 -38 0
5 26 29 0
5 -26 -29 0
2 26 31 0
2 -26 -31 0
9 26 32 0
9 -26 -32 0
7 26 35 0
7 -26 -35 0
6 26 42 0
6 -26 -42 0
3 27 29 0
3 -27 -29 0
6 27 31 0
6 -27 -31 0
5 27 32 0
5 -27 -32 0
9 27 36 0
9 -27 -36 0
4 27 41 0
4 -27 -41 0
3 28 30 0
3 -28 -30 0
4 28 31 0
4 -28 -31 0
8 28 32 0
8 -28 -32 0
7 28 34 0
7 -28 -34 0
10 28 35 0
10 -28 -35 0
4 28 36 0
4 -28 -36 0
9 28 39 0
9 -28 -39 0
2 28 42 0
2 -28 -42 0
5 29 31 0
5 -29 -31 0
1 29 35 0
1 -29 -35 0
8 29 37 0
8 -29 -37 0
8 29 38 0
8 -29 -38 0
3 29 39 0
3 -29 -39 0
2 30 31 0
2 -30 -31 0
9 30 32 0
9 -30 -32 0
8 30 39 0
8 -30 -39 0
1 30 42 0
1 -30 -42 0
5 31 32 0
5 -31 -32 0
10 31 33 0
10 -31 -33 0
8 31 34 0
8 -31 -34 0
3 31 35 0
3 -31 -35 0
5 31 36 0
5 -31 -36 0
9 31 42 0
9 -31 -42 0
1 32 33 0
1 -32 -33 0
1 32 34 0
1 -32 -34 0
4 32 35 0
4 -32 -35 0
4 32 37 0
4 -32 -37 0
7 32 39 0
7 -32 -39 0
9 32 41 0
9 -32 -41 0
2 33 35 0
2 -33 -35 0
1 33 37 0
1 -33 -37 0
1 33 40 0
1 -33 -40 0
5 33 42 0
5 -33 -42 0
8 34 35 0
8 -34 -35 0
7 34 37 0
7 -34 -37 0
5 34 40 0
5 -34 -40 0
2 34 41 0
2 -34 -41 0
6 35 36 0
6 -35 -36 0
6 35 37 0
6 -35 -37 0
6 35 38 0
6 -35 -38 0
6 35 39 0
6 -35 -39 0
4 35 40 0
4 -35 -40 0
4 35 42 0
4 -35 -42 0
9 36 38 0
9 -36 -38 0
5 39 41 0
5 -39 -41 0
2 39 42 0
2 -39 -42 0
7 41 42 0
7 -41 -42 0
